sat
((|B0| false))
((|B1| true))
((|B10| true))
((|B11| true))
((|B12| true))
((|B13| true))
((|B14| false))
((|B15| false))
((|B16| false))
((|B17| true))
((|B18| true))
((|B19| true))
((|B2| true))
((|B20| true))
((|B21| true))
((|B22| true))
((|B23| true))
((|B24| true))
((|B25| true))
((|B26| true))
((|B27| true))
((|B28| true))
((|B29| false))
((|B3| true))
((|B4| true))
((|B5| true))
((|B6| true))
((|B7| true))
((|B8| true))
((|B9| true))
((|__CPROVER_dead_object#1| #x00000000))
((|__CPROVER_dead_object#1$wclk$8| (- 25)))
((|__CPROVER_deallocated#1| #x00000000))
((|__CPROVER_deallocated#1$wclk$8| (- 24)))
((|__CPROVER_malloc_is_new_array#1| false))
((|__CPROVER_malloc_is_new_array#1$wclk$8| (- 23)))
((|__CPROVER_malloc_object#1| #x00000000))
((|__CPROVER_malloc_object#1$wclk$8| (- 22)))
((|__CPROVER_malloc_size#1| #x00000000))
((|__CPROVER_malloc_size#1$wclk$8| (- 21)))
((|__CPROVER_memory_leak#1| #x00000000))
((|__CPROVER_memory_leak#1$wclk$8| (- 20)))
((|__CPROVER_next_thread_id#1| #x00000000))
((|__CPROVER_next_thread_id#1$wclk$8| (- 19)))
((|__CPROVER_next_thread_id#2| #x00000001))
((|__CPROVER_next_thread_id#2$wclk$8| (- 12)))
((|__CPROVER_pipe_count#1| #x00000000))
((|__CPROVER_pipe_count#1$wclk$8| (- 18)))
((|__CPROVER_rounding_mode!0#1| #x00000000))
((|__CPROVER_rounding_mode!1#1| #x00000000))
((|__CPROVER_thread_id!0#1| #x00000000))
((|__CPROVER_thread_id!1#1| #x00000000))
((|__CPROVER_thread_id!1#2| #x00000000))
((|__CPROVER_threads_exited#1| ((as const (Array (_ BitVec 32) Bool)) false)))
((|__CPROVER_threads_exited#1$wclk$8| (- 17)))
((|goto_symex::&92;guard#1| false))
((|goto_symex::&92;guard#2| false))
((|goto_symex::&92;guard#3| true))
((|main#return_value!1#1| #x00000000))
((|main::1::r!0@1| #x000000000000000000000000000000000000000000000000))
((|main::1::r!0@1#1| #x000000000000000000000000000000000004000100000001))
((|main::1::r!0@1#1$wclk$8| (- 15)))
((|main::1::r!0@1#10| #x000000000000000000000000000000000004000100000000))
((|main::1::r!0@1#10$rclk$8| (- 3)))
((|main::1::r!0@1#11| #x000000000000000000000000000000000004000100000000))
((|main::1::r!0@1#11$rclk$8| (- 2)))
((|main::1::r!0@1#12| #x000000010000000000000000000000000004000100000000))
((|main::1::r!0@1#12$wclk$8| 0))
((|main::1::r!0@1#14| #x000000000000000000000000000000000004000100000000))
((|main::1::r!0@1#14$rclk$8| (- 9)))
((|main::1::r!0@1#15| #x000000000000000000000000000000000004000100000000))
((|main::1::r!0@1#15$rclk$8| (- 8)))
((|main::1::r!0@1#16| #x000000000000000000000000000000000004000100000000))
((|main::1::r!0@1#16$rclk$8| (- 7)))
((|main::1::r!0@1#17| #x000000000000000000000000000000000004000100000000))
((|main::1::r!0@1#17$rclk$8| (- 6)))
((|main::1::r!0@1#18| #x000000000000000000000000000000000004000100000001))
((|main::1::r!0@1#18$wclk$8| (- 1)))
((|main::1::r!0@1#2| #x000000000000000000000000000000000004000100000001))
((|main::1::r!0@1#2$wclk$8| (- 14)))
((|main::1::r!0@1#3| #x000000000000000000000000000000000004000100000000))
((|main::1::r!0@1#3$wclk$8| (- 13)))
((|main::1::r!0@1#4| #x000000000000000000000000000000000004000100000000))
((|main::1::r!0@1#4$rclk$8| (- 9)))
((|main::1::r!0@1#5| #x000000000000000000000000000000000004000100000000))
((|main::1::r!0@1#5$rclk$8| (- 8)))
((|main::1::r!0@1#6| #x000000000000000000000000000000000004000100000000))
((|main::1::r!0@1#6$rclk$8| (- 7)))
((|main::1::r!0@1#7| #x000000000000000000000000000000000004000100000000))
((|main::1::r!0@1#7$rclk$8| (- 6)))
((|main::1::r!0@1#8| #x000000000000000000000000000000000004000100000000))
((|main::1::r!0@1#8$rclk$8| (- 5)))
((|main::1::r!0@1#9| #x000000000000000000000000000000000004000100000000))
((|main::1::r!0@1#9$wclk$8| (- 4)))
((|main::1::reader!0@1| #x00000000))
((|main::1::reader!0@1#1| #x00000000))
((|main::1::reader!0@1#1$wclk$8| (- 16)))
((|main::1::reader!0@1#2| #x00000001))
((|main::1::reader!0@1#2$wclk$8| (- 11)))
((|memory_model::choice_rf_0_16_0_10_F_0| false))
((|memory_model::choice_rf_0_16_0_11_F_1| false))
((|memory_model::choice_rf_0_16_0_12_F_2| true))
((|memory_model::choice_rf_0_16_1_4_F_3| false))
((|memory_model::choice_rf_0_17_0_10_F_4| false))
((|memory_model::choice_rf_0_17_0_11_F_5| false))
((|memory_model::choice_rf_0_17_0_12_F_6| true))
((|memory_model::choice_rf_0_17_1_4_F_7| false))
((|memory_model::choice_rf_0_18_0_10_F_8| false))
((|memory_model::choice_rf_0_18_0_11_F_9| false))
((|memory_model::choice_rf_0_18_0_12_F_10| true))
((|memory_model::choice_rf_0_18_1_4_F_11| false))
((|memory_model::choice_rf_0_19_0_10_F_12| false))
((|memory_model::choice_rf_0_19_0_11_F_13| false))
((|memory_model::choice_rf_0_19_0_12_F_14| true))
((|memory_model::choice_rf_0_19_1_4_F_15| false))
((|memory_model::choice_rf_0_20_0_10_F_16| false))
((|memory_model::choice_rf_0_20_0_11_F_17| false))
((|memory_model::choice_rf_0_20_0_12_F_18| true))
((|memory_model::choice_rf_0_20_1_4_F_19| false))
((|memory_model::choice_rf_0_22_0_10_F_20| false))
((|memory_model::choice_rf_0_22_0_11_F_21| false))
((|memory_model::choice_rf_0_22_0_12_F_22| false))
((|memory_model::choice_rf_0_22_0_21_F_23| true))
((|memory_model::choice_rf_0_22_1_4_F_24| false))
((|memory_model::choice_rf_0_23_0_10_F_25| false))
((|memory_model::choice_rf_0_23_0_11_F_26| false))
((|memory_model::choice_rf_0_23_0_12_F_27| false))
((|memory_model::choice_rf_0_23_0_21_F_28| true))
((|memory_model::choice_rf_0_23_1_4_F_29| false))
((|memory_model::choice_rf_1_0_0_10_F_30| false))
((|memory_model::choice_rf_1_0_0_11_F_31| false))
((|memory_model::choice_rf_1_0_0_12_F_32| true))
((|memory_model::choice_rf_1_0_0_21_F_33| false))
((|memory_model::choice_rf_1_0_0_24_F_34| false))
((|memory_model::choice_rf_1_1_0_10_F_35| false))
((|memory_model::choice_rf_1_1_0_11_F_36| false))
((|memory_model::choice_rf_1_1_0_12_F_37| true))
((|memory_model::choice_rf_1_1_0_21_F_38| false))
((|memory_model::choice_rf_1_1_0_24_F_39| false))
((|memory_model::choice_rf_1_2_0_10_F_40| false))
((|memory_model::choice_rf_1_2_0_11_F_41| false))
((|memory_model::choice_rf_1_2_0_12_F_42| true))
((|memory_model::choice_rf_1_2_0_21_F_43| false))
((|memory_model::choice_rf_1_2_0_24_F_44| false))
((|memory_model::choice_rf_1_3_0_10_F_45| false))
((|memory_model::choice_rf_1_3_0_11_F_46| false))
((|memory_model::choice_rf_1_3_0_12_F_47| true))
((|memory_model::choice_rf_1_3_0_21_F_48| false))
((|memory_model::choice_rf_1_3_0_24_F_49| false))
((|memory_model::choice_ws-ext_0_10_1_4_F_50| true))
((|memory_model::choice_ws-ext_0_11_1_4_F_51| true))
((|memory_model::choice_ws-ext_0_12_1_4_F_52| true))
((|memory_model::choice_ws-ext_0_21_1_4_F_53| true))
((|memory_model::choice_ws-ext_0_24_1_4_F_54| false))
((|pthread_create#return_value!0#1| #x00000000))
((|pthread_create#return_value!1#1| #x00000000))
((|pthread_create::1::this_thread_id!0@1#1| #x00000000))
((|pthread_create::1::this_thread_id!0@1#2| #x00000001))
((|pthread_create::1::this_thread_id!1@0#0| #x00000000))
((|pthread_create::arg!0@1#1| #x02000000))
((|pthread_create::arg!1@0#1| #x02000000))
((|pthread_create::attr!0@1#1| #x00000000))
((|pthread_create::attr!1@0#1| #x00000000))
((|pthread_create::start_routine!0@1#1| #x04000000))
((|pthread_create::start_routine!1@0#1| #x04000000))
((|pthread_create::thread!0@1#1| #x03000000))
((|pthread_create::thread!1@0#1| #x03000000))
((|pthread_join#return_value!1#1| #x00000000))
((|reader_fn#return_value!1#1| #x00000000))
((|reader_nowait_fn#return_value!1#1| #x00000000))
((|reader_nowait_fn::1::i!1@1#1| #x00000000))
((|reader_nowait_fn::1::i!1@1#2| #x00000000))
((|reader_nowait_fn::1::i!1@1#3| #x00000001))
((|reader_nowait_fn::1::last!1@1#1| #x00000000))
((|reader_nowait_fn::1::last!1@1#2| #x00000000))
((|reader_nowait_fn::1::last!1@1#3| #x00040001))
((|reader_nowait_fn::1::r!1@1#1| #x00000000))
((|reader_nowait_fn::1::r!1@1#2| #x02000000))
((|reader_nowait_fn::1::val!1@1#1| #x00000000))
((|reader_nowait_fn::1::val!1@1#2| #x00000000))
((|reader_nowait_fn::1::val!1@1#3| #x00040001))
((|reader_nowait_fn::arg!1@1#1| #x02000000))
((|ring_dequeue#return_value!1#1| #x00000000))
((|ring_dequeue#return_value!1#2| #x00040001))
((|ring_dequeue::1::x!1@1#1| #x00000000))
((|ring_dequeue::1::x!1@1#2| #x00040001))
((|ring_dequeue::r!1@1#1| #x02000000))
((|ring_empty#return_value!1#1| #x00))
((|ring_enqueue::r!0@1#1| #x02000000))
((|ring_enqueue::x!0@1#1| #x00000001))
((|ring_init::r!0@1#1| #x02000000))
((|t1$15$spwnclk$8| (- 10)))
((|writer_fn#return_value!1#1| #x00000000))
((|writer_fn::1::1::i!0@1#1| #x00000000))
((|writer_fn::1::1::i!0@1#2| #x00000000))
((|writer_fn::1::1::i!0@1#3| #x00000001))
((|writer_fn::1::r!0@1#1| #x00000000))
((|writer_fn::1::r!0@1#2| #x02000000))
((|writer_fn::arg!0@1#1| #x02000000))
(model 
  (define-fun |main::1::r!0@1#1$wclk$8| () Int
    (- 15))
  (define-fun |memory_model::choice_rf_1_2_0_12_F_42| () Bool
    true)
  (define-fun |memory_model::choice_rf_1_0_0_21_F_33| () Bool
    false)
  (define-fun |memory_model::choice_rf_1_3_0_21_F_48| () Bool
    false)
  (define-fun |main::1::r!0@1#8| () (_ BitVec 192)
    #x000000000000000000000000000000000004000100000000)
  (define-fun |memory_model::choice_rf_1_0_0_10_F_30| () Bool
    false)
  (define-fun |memory_model::choice_rf_0_17_1_4_F_7| () Bool
    false)
  (define-fun |main::1::r!0@1#14$rclk$8| () Int
    (- 9))
  (define-fun |memory_model::choice_rf_1_0_0_24_F_34| () Bool
    false)
  (define-fun |memory_model::choice_rf_0_16_0_10_F_0| () Bool
    false)
  (define-fun |memory_model::choice_rf_1_1_0_21_F_38| () Bool
    false)
  (define-fun |memory_model::choice_rf_0_20_1_4_F_19| () Bool
    false)
  (define-fun |main::1::r!0@1#16$rclk$8| () Int
    (- 7))
  (define-fun |memory_model::choice_rf_0_22_0_12_F_22| () Bool
    false)
  (define-fun |memory_model::choice_rf_0_22_1_4_F_24| () Bool
    false)
  (define-fun |memory_model::choice_rf_0_16_0_11_F_1| () Bool
    false)
  (define-fun |memory_model::choice_rf_1_2_0_11_F_41| () Bool
    false)
  (define-fun |memory_model::choice_rf_1_2_0_24_F_44| () Bool
    false)
  (define-fun |main::1::r!0@1#4$rclk$8| () Int
    (- 9))
  (define-fun |main::1::r!0@1#7$rclk$8| () Int
    (- 6))
  (define-fun |main::1::r!0@1#15$rclk$8| () Int
    (- 8))
  (define-fun |memory_model::choice_rf_0_18_1_4_F_11| () Bool
    false)
  (define-fun |memory_model::choice_rf_1_1_0_11_F_36| () Bool
    false)
  (define-fun |memory_model::choice_ws-ext_0_10_1_4_F_50| () Bool
    true)
  (define-fun |main::1::r!0@1#11$rclk$8| () Int
    (- 2))
  (define-fun |memory_model::choice_rf_0_20_0_12_F_18| () Bool
    true)
  (define-fun |memory_model::choice_rf_0_20_0_10_F_16| () Bool
    false)
  (define-fun |memory_model::choice_rf_0_23_1_4_F_29| () Bool
    false)
  (define-fun |memory_model::choice_ws-ext_0_24_1_4_F_54| () Bool
    false)
  (define-fun |main::1::r!0@1#6| () (_ BitVec 192)
    #x000000000000000000000000000000000004000100000000)
  (define-fun |memory_model::choice_rf_0_23_0_21_F_28| () Bool
    true)
  (define-fun |memory_model::choice_rf_1_1_0_12_F_37| () Bool
    true)
  (define-fun |main::1::r!0@1#8$rclk$8| () Int
    (- 5))
  (define-fun |memory_model::choice_rf_0_22_0_11_F_21| () Bool
    false)
  (define-fun |memory_model::choice_rf_0_19_0_10_F_12| () Bool
    false)
  (define-fun |main::1::r!0@1#11| () (_ BitVec 192)
    #x000000000000000000000000000000000004000100000000)
  (define-fun |main::1::r!0@1#10$rclk$8| () Int
    (- 3))
  (define-fun |memory_model::choice_rf_0_19_0_11_F_13| () Bool
    false)
  (define-fun |memory_model::choice_rf_0_19_0_12_F_14| () Bool
    true)
  (define-fun |memory_model::choice_ws-ext_0_12_1_4_F_52| () Bool
    true)
  (define-fun |memory_model::choice_rf_0_17_0_11_F_5| () Bool
    false)
  (define-fun |memory_model::choice_rf_1_3_0_24_F_49| () Bool
    false)
  (define-fun |main::1::r!0@1#15| () (_ BitVec 192)
    #x000000000000000000000000000000000004000100000000)
  (define-fun |memory_model::choice_rf_1_2_0_21_F_43| () Bool
    false)
  (define-fun |memory_model::choice_rf_0_23_0_12_F_27| () Bool
    false)
  (define-fun |main::1::r!0@1#17$rclk$8| () Int
    (- 6))
  (define-fun |memory_model::choice_rf_0_22_0_21_F_23| () Bool
    true)
  (define-fun |main::1::r!0@1#1| () (_ BitVec 192)
    #x000000000000000000000000000000000004000100000001)
  (define-fun |main::1::r!0@1#18$wclk$8| () Int
    (- 1))
  (define-fun |memory_model::choice_rf_1_0_0_11_F_31| () Bool
    false)
  (define-fun |main::1::r!0@1#6$rclk$8| () Int
    (- 7))
  (define-fun |main::1::r!0@1#16| () (_ BitVec 192)
    #x000000000000000000000000000000000004000100000000)
  (define-fun t1$15$spwnclk$8 () Int
    (- 10))
  (define-fun |memory_model::choice_rf_0_16_1_4_F_3| () Bool
    false)
  (define-fun |main::1::r!0@1#10| () (_ BitVec 192)
    #x000000000000000000000000000000000004000100000000)
  (define-fun |main::1::r!0@1#4| () (_ BitVec 192)
    #x000000000000000000000000000000000004000100000000)
  (define-fun |main::1::r!0@1#3$wclk$8| () Int
    (- 13))
  (define-fun |memory_model::choice_rf_0_23_0_11_F_26| () Bool
    false)
  (define-fun |memory_model::choice_rf_1_0_0_12_F_32| () Bool
    true)
  (define-fun |memory_model::choice_ws-ext_0_11_1_4_F_51| () Bool
    true)
  (define-fun |memory_model::choice_rf_1_1_0_24_F_39| () Bool
    false)
  (define-fun |main::1::r!0@1#2$wclk$8| () Int
    (- 14))
  (define-fun |memory_model::choice_rf_0_22_0_10_F_20| () Bool
    false)
  (define-fun |memory_model::choice_rf_0_23_0_10_F_25| () Bool
    false)
  (define-fun |memory_model::choice_rf_0_17_0_12_F_6| () Bool
    true)
  (define-fun |main::1::r!0@1#17| () (_ BitVec 192)
    #x000000000000000000000000000000000004000100000000)
  (define-fun |memory_model::choice_rf_1_3_0_11_F_46| () Bool
    false)
  (define-fun |memory_model::choice_rf_1_3_0_10_F_45| () Bool
    false)
  (define-fun |memory_model::choice_rf_0_18_0_10_F_8| () Bool
    false)
  (define-fun |memory_model::choice_rf_0_18_0_12_F_10| () Bool
    true)
  (define-fun |main::1::reader!0@1#2$wclk$8| () Int
    (- 11))
  (define-fun |main::1::r!0@1#9$wclk$8| () Int
    (- 4))
  (define-fun |memory_model::choice_ws-ext_0_21_1_4_F_53| () Bool
    true)
  (define-fun |memory_model::choice_rf_0_20_0_11_F_17| () Bool
    false)
  (define-fun |memory_model::choice_rf_0_17_0_10_F_4| () Bool
    false)
  (define-fun |main::1::r!0@1#12$wclk$8| () Int
    0)
  (define-fun |__CPROVER_next_thread_id#2$wclk$8| () Int
    (- 12))
  (define-fun |memory_model::choice_rf_0_16_0_12_F_2| () Bool
    true)
  (define-fun |memory_model::choice_rf_1_2_0_10_F_40| () Bool
    false)
  (define-fun |memory_model::choice_rf_0_19_1_4_F_15| () Bool
    false)
  (define-fun |main::1::r!0@1#7| () (_ BitVec 192)
    #x000000000000000000000000000000000004000100000000)
  (define-fun |main::1::r!0@1#14| () (_ BitVec 192)
    #x000000000000000000000000000000000004000100000000)
  (define-fun |main::1::r!0@1#5$rclk$8| () Int
    (- 8))
  (define-fun |memory_model::choice_rf_1_1_0_10_F_35| () Bool
    false)
  (define-fun |memory_model::choice_rf_0_18_0_11_F_9| () Bool
    false)
  (define-fun |memory_model::choice_rf_1_3_0_12_F_47| () Bool
    true)
  (define-fun |main::1::r!0@1#5| () (_ BitVec 192)
    #x000000000000000000000000000000000004000100000000)
  (define-fun |main::1::reader!0@1#1$wclk$8| () Int
    (- 16))
  (define-fun |__CPROVER_threads_exited#1$wclk$8| () Int
    (- 17))
  (define-fun |__CPROVER_pipe_count#1$wclk$8| () Int
    (- 18))
  (define-fun |__CPROVER_next_thread_id#1$wclk$8| () Int
    (- 19))
  (define-fun |__CPROVER_memory_leak#1$wclk$8| () Int
    (- 20))
  (define-fun |__CPROVER_malloc_size#1$wclk$8| () Int
    (- 21))
  (define-fun |__CPROVER_malloc_object#1$wclk$8| () Int
    (- 22))
  (define-fun |__CPROVER_malloc_is_new_array#1$wclk$8| () Int
    (- 23))
  (define-fun |__CPROVER_deallocated#1$wclk$8| () Int
    (- 24))
  (define-fun |__CPROVER_dead_object#1$wclk$8| () Int
    (- 25))
  (define-fun |goto_symex::&92;guard#3| () Bool
    true)
  (define-fun |goto_symex::&92;guard#2| () Bool
    false)
  (define-fun B29 () Bool
    false)
  (define-fun B28 () Bool
    true)
  (define-fun B27 () Bool
    true)
  (define-fun |ring_dequeue::1::x!1@1#1| () (_ BitVec 32)
    #x00000000)
  (define-fun B26 () Bool
    true)
  (define-fun |reader_nowait_fn::1::i!1@1#1| () (_ BitVec 32)
    #x00000000)
  (define-fun B25 () Bool
    true)
  (define-fun |reader_nowait_fn::1::last!1@1#1| () (_ BitVec 32)
    #x00000000)
  (define-fun B24 () Bool
    true)
  (define-fun |reader_nowait_fn::1::val!1@1#1| () (_ BitVec 32)
    #x00000000)
  (define-fun B23 () Bool
    true)
  (define-fun |reader_nowait_fn::1::r!1@1#1| () (_ BitVec 32)
    #x00000000)
  (define-fun B22 () Bool
    true)
  (define-fun |writer_fn::1::1::i!0@1#1| () (_ BitVec 32)
    #x00000000)
  (define-fun B21 () Bool
    true)
  (define-fun |writer_fn::1::r!0@1#1| () (_ BitVec 32)
    #x00000000)
  (define-fun B20 () Bool
    true)
  (define-fun |pthread_create::1::this_thread_id!0@1#1| () (_ BitVec 32)
    #x00000000)
  (define-fun B19 () Bool
    true)
  (define-fun B18 () Bool
    true)
  (define-fun |main::1::reader!0@1#1| () (_ BitVec 32)
    #x00000000)
  (define-fun B17 () Bool
    true)
  (define-fun |reader_nowait_fn::1::i!1@1#3| () (_ BitVec 32)
    #x00000001)
  (define-fun |reader_nowait_fn::1::last!1@1#3| () (_ BitVec 32)
    #x00040001)
  (define-fun |reader_nowait_fn::1::val!1@1#3| () (_ BitVec 32)
    #x00040001)
  (define-fun |ring_dequeue#return_value!1#2| () (_ BitVec 32)
    #x00040001)
  (define-fun |main::1::r!0@1#18| () (_ BitVec 192)
    #x000000000000000000000000000000000004000100000001)
  (define-fun |ring_dequeue::1::x!1@1#2| () (_ BitVec 32)
    #x00040001)
  (define-fun |ring_dequeue::r!1@1#1| () (_ BitVec 32)
    #x02000000)
  (define-fun |reader_nowait_fn::1::i!1@1#2| () (_ BitVec 32)
    #x00000000)
  (define-fun |reader_nowait_fn::1::last!1@1#2| () (_ BitVec 32)
    #x00000000)
  (define-fun |reader_nowait_fn::1::val!1@1#2| () (_ BitVec 32)
    #x00000000)
  (define-fun |reader_nowait_fn::1::r!1@1#2| () (_ BitVec 32)
    #x02000000)
  (define-fun |reader_nowait_fn::arg!1@1#1| () (_ BitVec 32)
    #x02000000)
  (define-fun |pthread_create::1::this_thread_id!1@0#0| () (_ BitVec 32)
    #x00000000)
  (define-fun |__CPROVER_thread_id!1#2| () (_ BitVec 32)
    #x00000000)
  (define-fun |writer_fn::1::1::i!0@1#3| () (_ BitVec 32)
    #x00000001)
  (define-fun |main::1::r!0@1#12| () (_ BitVec 192)
    #x000000010000000000000000000000000004000100000000)
  (define-fun |main::1::r!0@1#9| () (_ BitVec 192)
    #x000000000000000000000000000000000004000100000000)
  (define-fun |ring_enqueue::x!0@1#1| () (_ BitVec 32)
    #x00000001)
  (define-fun |ring_enqueue::r!0@1#1| () (_ BitVec 32)
    #x02000000)
  (define-fun |writer_fn::1::1::i!0@1#2| () (_ BitVec 32)
    #x00000000)
  (define-fun |writer_fn::1::r!0@1#2| () (_ BitVec 32)
    #x02000000)
  (define-fun |writer_fn::arg!0@1#1| () (_ BitVec 32)
    #x02000000)
  (define-fun |pthread_create#return_value!0#1| () (_ BitVec 32)
    #x00000000)
  (define-fun |main#return_value!1#1| () (_ BitVec 32)
    #x00000000)
  (define-fun |ring_dequeue#return_value!1#1| () (_ BitVec 32)
    #x00000000)
  (define-fun |__CPROVER_thread_id!1#1| () (_ BitVec 32)
    #x00000000)
  (define-fun |ring_empty#return_value!1#1| () (_ BitVec 8)
    #x00)
  (define-fun |pthread_create#return_value!1#1| () (_ BitVec 32)
    #x00000000)
  (define-fun |pthread_join#return_value!1#1| () (_ BitVec 32)
    #x00000000)
  (define-fun |__CPROVER_rounding_mode!1#1| () (_ BitVec 32)
    #x00000000)
  (define-fun |writer_fn#return_value!1#1| () (_ BitVec 32)
    #x00000000)
  (define-fun |reader_nowait_fn#return_value!1#1| () (_ BitVec 32)
    #x00000000)
  (define-fun |reader_fn#return_value!1#1| () (_ BitVec 32)
    #x00000000)
  (define-fun |pthread_create::arg!1@0#1| () (_ BitVec 32)
    #x02000000)
  (define-fun |pthread_create::start_routine!1@0#1| () (_ BitVec 32)
    #x04000000)
  (define-fun |pthread_create::attr!1@0#1| () (_ BitVec 32)
    #x00000000)
  (define-fun |pthread_create::thread!1@0#1| () (_ BitVec 32)
    #x03000000)
  (define-fun |goto_symex::&92;guard#1| () Bool
    false)
  (define-fun |main::1::reader!0@1#2| () (_ BitVec 32)
    #x00000001)
  (define-fun |pthread_create::1::this_thread_id!0@1#2| () (_ BitVec 32)
    #x00000001)
  (define-fun |__CPROVER_next_thread_id#2| () (_ BitVec 32)
    #x00000001)
  (define-fun |pthread_create::arg!0@1#1| () (_ BitVec 32)
    #x02000000)
  (define-fun |pthread_create::start_routine!0@1#1| () (_ BitVec 32)
    #x04000000)
  (define-fun |pthread_create::attr!0@1#1| () (_ BitVec 32)
    #x00000000)
  (define-fun |pthread_create::thread!0@1#1| () (_ BitVec 32)
    #x03000000)
  (define-fun |main::1::r!0@1#3| () (_ BitVec 192)
    #x000000000000000000000000000000000004000100000000)
  (define-fun |main::1::r!0@1#2| () (_ BitVec 192)
    #x000000000000000000000000000000000004000100000001)
  (define-fun |ring_init::r!0@1#1| () (_ BitVec 32)
    #x02000000)
  (define-fun array_of.0 () (Array (_ BitVec 32) Bool)
    ((as const (Array (_ BitVec 32) Bool)) false))
  (define-fun |__CPROVER_threads_exited#1| () (Array (_ BitVec 32) Bool)
    ((as const (Array (_ BitVec 32) Bool)) false))
  (define-fun |__CPROVER_thread_id!0#1| () (_ BitVec 32)
    #x00000000)
  (define-fun |__CPROVER_rounding_mode!0#1| () (_ BitVec 32)
    #x00000000)
  (define-fun |__CPROVER_pipe_count#1| () (_ BitVec 32)
    #x00000000)
  (define-fun |__CPROVER_next_thread_id#1| () (_ BitVec 32)
    #x00000000)
  (define-fun |__CPROVER_memory_leak#1| () (_ BitVec 32)
    #x00000000)
  (define-fun |__CPROVER_malloc_size#1| () (_ BitVec 32)
    #x00000000)
  (define-fun |__CPROVER_malloc_object#1| () (_ BitVec 32)
    #x00000000)
  (define-fun |__CPROVER_malloc_is_new_array#1| () Bool
    false)
  (define-fun |__CPROVER_deallocated#1| () (_ BitVec 32)
    #x00000000)
  (define-fun |__CPROVER_dead_object#1| () (_ BitVec 32)
    #x00000000)
  (define-fun B16 () Bool
    false)
  (define-fun B15 () Bool
    false)
  (define-fun B14 () Bool
    false)
  (define-fun B13 () Bool
    true)
  (define-fun B12 () Bool
    true)
  (define-fun B11 () Bool
    true)
  (define-fun B10 () Bool
    true)
  (define-fun B9 () Bool
    true)
  (define-fun B8 () Bool
    true)
  (define-fun B7 () Bool
    true)
  (define-fun B6 () Bool
    true)
  (define-fun B5 () Bool
    true)
  (define-fun B4 () Bool
    true)
  (define-fun B3 () Bool
    true)
  (define-fun B2 () Bool
    true)
  (define-fun B1 () Bool
    true)
  (define-fun B0 () Bool
    false)
  (define-fun |main::1::r!0@1| () (_ BitVec 192)
    #x000000000000000000000000000000000000000000000000)
  (define-fun |main::1::reader!0@1| () (_ BitVec 32)
    #x00000000)
)
(:added-eqs                      138
 :arith-bound-propagations-cheap 11
 :arith-bound-propagations-lp    75
 :arith-lower                    30
 :arith-make-feasible            14
 :arith-max-columns              114
 :arith-max-rows                 90
 :arith-propagations             11
 :arith-upper                    33
 :binary-propagations            312
 :bv-bit2core                    2112
 :bv-diseqs                      519
 :bv-dynamic-diseqs              2
 :bv->core-eq                    58
 :conflicts                      1
 :decisions                      235
 :del-clause                     158
 :eliminated-applications        20
 :eliminated-vars                2
 :final-checks                   1
 :max-memory                     5.45
 :memory                         3.40
 :minimized-lits                 192
 :mk-bool-var                    3220
 :mk-clause                      1701
 :num-allocs                     2069071
 :num-checks                     1
 :propagations                   732
 :rlimit-count                   128708
 :time                           0.02
 :total-time                     0.04)

real	0m0.041s
user	0m0.037s
sys	0m0.003s
State: AC Run_time: 0.04264497756958008